NAME          
ROWS
 N  OBJ
 L  c1
 L  c2
COLUMNS
    MARKER    'MARKER'                 'INTORG'
    x[1]      c1        522
    x[1]      c2        257
    x[1]      OBJ       -688
    x[2]      c1        897
    x[2]      c2        941
    x[2]      OBJ       -332
    x[3]      c1        451
    x[3]      c2        522
    x[3]      OBJ       -141
    x[4]      c1        216
    x[4]      c2        505
    x[4]      OBJ       -37
    x[5]      c1        137
    x[5]      c2        384
    x[5]      OBJ       -871
    x[6]      c1        58
    x[6]      c2        703
    x[6]      OBJ       -452
    x[7]      c1        193
    x[7]      c2        620
    x[7]      OBJ       -705
    x[8]      c1        572
    x[8]      c2        513
    x[8]      OBJ       -207
    x[9]      c1        146
    x[9]      c2        835
    x[9]      OBJ       -247
    x[10]     c1        49
    x[10]     c2        659
    x[10]     OBJ       -771
    x[11]     c1        51
    x[11]     c2        453
    x[11]     OBJ       -879
    x[12]     c1        648
    x[12]     c2        162
    x[12]     OBJ       -567
    x[13]     c1        38
    x[13]     c2        163
    x[13]     OBJ       -642
    x[14]     c1        731
    x[14]     c2        32
    x[14]     OBJ       -440
    x[15]     c1        763
    x[15]     c2        796
    x[15]     OBJ       -865
    x[16]     c1        682
    x[16]     c2        524
    x[16]     OBJ       -913
    x[17]     c1        916
    x[17]     c2        430
    x[17]     OBJ       -182
    x[18]     c1        400
    x[18]     c2        889
    x[18]     OBJ       -689
    x[19]     c1        717
    x[19]     c2        641
    x[19]     OBJ       -68
    x[20]     c1        585
    x[20]     c2        763
    x[20]     OBJ       -201
RHS
    rhs       c1        4386
    rhs       c2        5396
RANGES
BOUNDS
 BV bounds    x[1]
 BV bounds    x[2]
 BV bounds    x[3]
 BV bounds    x[4]
 BV bounds    x[5]
 BV bounds    x[6]
 BV bounds    x[7]
 BV bounds    x[8]
 BV bounds    x[9]
 BV bounds    x[10]
 BV bounds    x[11]
 BV bounds    x[12]
 BV bounds    x[13]
 BV bounds    x[14]
 BV bounds    x[15]
 BV bounds    x[16]
 BV bounds    x[17]
 BV bounds    x[18]
 BV bounds    x[19]
 BV bounds    x[20]
ENDATA
